0 0 0 0
0 1 2 0
0 2 0 0
0 3 0 0
0 4 0 4
0 5 0 4
0 6 1 10
0 7 1 6
0 8 2 10
0 9 2 4
0 10 2 6
0 11 2 15
0 12 0 15
0 13 0 8
0 14 0 15
0 15 0 16
0 16 1 18
0 17 0 24
0 18 1 18
0 19 1 24
0 20 0 29
0 21 0 25
0 22 0 28
0 23 1 16
0 24 0 29
0 25 0 25
0 26 0 31
0 27 0 20
0 28 2 32
0 29 0 30
0 30 0 31
0 31 0 33
